% MCP DATA

% Set data parameters
m = 2; % Number of couriers
n = 6; % Number of items
capacity = [15, 10]; % Courier capacities
itemSize = [3, 2, 6, 5, 4, 4]; % Item sizes
distanceMatrix = [|0, 3, 4, 5, 6, 6, 2
                  |3, 0, 1, 4, 5, 7, 3
                  |4, 1, 0, 5, 6, 6, 4
                  |4, 4, 5, 0, 3, 3, 2
                  |6, 7, 8, 3, 0, 2, 4
                  |6, 7, 8, 3, 2, 0, 4
                  |2, 3, 4, 3, 4, 4, 0
                  |];
is_symmetric = false;
min_used_capacities = [15, 10];
max_used_capacities = [15, 10];
min_durations = [3, 2];
max_durations = [5, 4];
